This is Ipopt version 3.10.2, running with linear solver mumps.

Number of nonzeros in equality constraint Jacobian...:        0
Number of nonzeros in inequality constraint Jacobian.:     3820
Number of nonzeros in Lagrangian Hessian.............:    27930

Total number of variables............................:     3820
                     variables with only lower bounds:        0
                variables with lower and upper bounds:        0
                     variables with only upper bounds:        0
Total number of equality constraints.................:        0
Total number of inequality constraints...............:     2078
        inequality constraints with only lower bounds:     2078
   inequality constraints with lower and upper bounds:        0
        inequality constraints with only upper bounds:        0

iter    objective    inf_pr   inf_du lg(mu)  ||d||  lg(rg) alpha_du alpha_pr  ls
   0  6.1179031e-01 0.00e+00 1.24e-01   0.0 0.00e+00    -  0.00e+00 0.00e+00   0
   1  6.3597035e+01 0.00e+00 4.19e-08  -2.4 9.80e+00    -  1.00e+00 1.00e+00h  1
   2  1.1198225e+01 0.00e+00 7.30e-09  -3.1 3.37e+00    -  1.00e+00 1.00e+00f  1
   3  1.9402292e+00 0.00e+00 7.32e-10  -4.1 1.14e+00    -  1.00e+00 1.00e+00f  1
   4  6.4048027e-01 0.00e+00 1.74e-04  -5.9 1.98e-01    -  1.00e+00 9.63e-01f  1
   5  5.6404506e-01 0.00e+00 8.93e-04  -5.8 3.79e-02    -  1.00e+00 8.95e-01f  1
   6  5.5531468e-01 0.00e+00 5.74e-04  -7.1 1.09e-02    -  1.00e+00 8.64e-01f  1
   7  5.5408060e-01 0.00e+00 1.82e-04  -7.8 3.14e-03    -  1.00e+00 9.13e-01f  1
   8  5.5396098e-01 0.00e+00 1.64e-05  -9.7 7.22e-04    -  1.00e+00 9.76e-01f  1
   9  5.5395756e-01 0.00e+00 1.34e-06 -11.0 2.22e-04    -  1.00e+00 9.95e-01f  1
iter    objective    inf_pr   inf_du lg(mu)  ||d||  lg(rg) alpha_du alpha_pr  ls
  10  5.5395751e-01 0.00e+00 2.45e-16 -11.0 7.03e-05    -  1.00e+00 1.00e+00h  1

Number of Iterations....: 10

                                   (scaled)                 (unscaled)
Objective...............:   5.5395751203127952e-01    5.5395751203127952e-01
Dual infeasibility......:   2.4459601011272980e-16    2.4459601011272980e-16
Constraint violation....:   0.0000000000000000e+00    0.0000000000000000e+00
Complementarity.........:   1.6390112938884529e-09    1.6390112938884529e-09
Overall NLP error.......:   1.6390112938884529e-09    1.6390112938884529e-09


Number of objective function evaluations             = 11
Number of objective gradient evaluations             = 11
Number of equality constraint evaluations            = 0
Number of inequality constraint evaluations          = 11
Number of equality constraint Jacobian evaluations   = 0
Number of inequality constraint Jacobian evaluations = 1
Number of Lagrangian Hessian evaluations             = 1
Total CPU secs in IPOPT (w/o function evaluations)   =      0.158
Total CPU secs in NLP function evaluations           =      0.008

EXIT: Optimal Solution Found.
